VALUE 111
1223 9
22 1171
370 967
22 402
412 1946
414 370
1187 456
659 986
1474 904
967 412
456 986
1180 1489
1187 967
1223 2305
1699 1474
1489 1187
1596 659
1688 1732
414 1699
1732 414
1946 2383
9 1975
2305 1180
2383 402

